c preprocessed version of DesarguesGraph, 20 vertices, 30 edges
p td 20 30
0 1
0 10
0 9
1 11
1 2
10 13
10 17
11 14
11 18
12 15
12 19
13 16
14 17
15 18
16 19
2 12
2 3
3 13
3 4
4 14
4 5
5 15
5 6
6 16
6 7
7 17
7 8
8 18
8 9
9 19
